20	5
0	9	8	1	4	9	6	5	3	7	2
1	4	14	12	11	18
2	6	19	15	17	16	14	20
3	6	16	19	18	13	20	14
4	7	15	19	17	16	14	20	18
5	3	18	10	20
6	8	19	13	16	14	18	20	15	17
7	7	18	20	13	15	17	16	14
8	2	20	14
9	7	18	13	17	16	15	20	14
10	1	12
11	6	15	17	20	19	16	13
12	2	16	15
13	1	21
14	1	21
15	1	21
16	1	21
17	1	21
18	1	21
19	1	21
20	1	21
21	0
0	0	0	0	0	0	0
1	9	2	0	5	0	5
2	2	4	2	1	1	5
3	6	3	0	4	0	1
4	6	0	1	1	1	0
5	9	4	1	4	5	0
6	8	3	1	1	2	3
7	7	3	0	1	3	3
8	7	4	5	0	3	0
9	5	3	1	2	0	2
10	9	5	1	4	3	1
11	4	2	3	0	4	3
12	7	4	3	0	4	0
13	4	3	1	2	2	3
14	7	3	0	0	5	0
15	6	3	5	2	4	1
16	7	1	3	0	4	2
17	5	1	1	3	0	0
18	3	4	5	2	4	2
19	3	0	0	3	4	0
20	4	0	0	4	3	3
21	0	0	0	0	0	0
5	5	5	5	5
